843570
25,78,51,79,29,40,94,26,17,12,19,59,90,34,71,24,43,52,65,54,98,23,11,28,46,67,61,58,82,16,15,83,88,50,36,99,38,76,87,45,4,66,7,81,86,14,39,92,84,22,73,95,47,57,1,48,80,68,13,37,74,70,32,33,9,20,21,96,30,77,10,18,41,6,75,69,56,49,93,62,31,60,63,72,55,44,91,53,8,89,85,5,64,3,2,27,35,97,42